unsat
(forall ((A (_ BitVec 32))
         (B (_ BitVec 1))
         (C (_ BitVec 32))
         (D (_ BitVec 1))
         (E (_ BitVec 70))
         (F (_ BitVec 4))
         (G (_ BitVec 32))
         (H (_ BitVec 4))
         (I (_ BitVec 4))
         (J (_ BitVec 4))
         (K (_ BitVec 1))
         (L (_ BitVec 1))
         (M (_ BitVec 1))
         (N (_ BitVec 1))
         (O (_ BitVec 1))
         (P (_ BitVec 4))
         (Q (_ BitVec 1))
         (R (_ BitVec 1))
         (S (_ BitVec 1))
         (T (_ BitVec 1))
         (U (_ BitVec 4))
         (V (_ BitVec 1))
         (W (_ BitVec 1))
         (X (_ BitVec 4))
         (Y (_ BitVec 1))
         (Z (_ BitVec 1))
         (A1 (_ BitVec 32))
         (B1 (_ BitVec 1))
         (C1 (_ BitVec 1))
         (D1 (_ BitVec 1))
         (E1 (_ BitVec 32))
         (F1 (_ BitVec 1))
         (G1 (_ BitVec 1))
         (H1 (_ BitVec 32))
         (I1 (_ BitVec 4))
         (J1 (_ BitVec 4))
         (K1 (_ BitVec 1))
         (L1 (_ BitVec 1))
         (M1 (_ BitVec 4))
         (N1 (_ BitVec 1))
         (O1 (_ BitVec 32))
         (P1 (_ BitVec 1))
         (Q1 (_ BitVec 1))
         (R1 (_ BitVec 1))
         (S1 (_ BitVec 1))
         (T1 (_ BitVec 1))
         (U1 (_ BitVec 32))
         (V1 (_ BitVec 1))
         (W1 (_ BitVec 1))
         (X1 (_ BitVec 1))
         (Y1 (_ BitVec 1))
         (Z1 (_ BitVec 1))
         (A2 (_ BitVec 1))
         (B2 (_ BitVec 1))
         (C2 (_ BitVec 1))
         (D2 (_ BitVec 70))
         (E2 (_ BitVec 1))
         (F2 (_ BitVec 1))
         (G2 (_ BitVec 1))
         (H2 (_ BitVec 1))
         (I2 (_ BitVec 1))
         (J2 (_ BitVec 1))
         (K2 (_ BitVec 1))
         (L2 (_ BitVec 1))
         (M2 (_ BitVec 1))
         (N2 (_ BitVec 1))
         (O2 (_ BitVec 1))
         (P2 (_ BitVec 1))
         (Q2 (_ BitVec 1))
         (R2 (_ BitVec 1))
         (S2 (_ BitVec 1))
         (T2 (_ BitVec 1))
         (U2 (_ BitVec 1))
         (V2 (_ BitVec 1))
         (W2 (_ BitVec 4))
         (X2 (_ BitVec 32))
         (Y2 (_ BitVec 1))
         (Z2 (_ BitVec 32))
         (A3 (_ BitVec 1))
         (B3 (_ BitVec 1))
         (C3 (_ BitVec 1))
         (D3 (_ BitVec 1)))
  (! (let ((a!1 (not (= (concat #b0 ((_ extract 68 0) D2)) D2)))
           (a!2 (or (not (= M2 #b0)) (not (= X (bvadd #x1 J)))))
           (a!3 (or (not (bvule X J)) (not (= J (bvadd #xf X)))))
           (a!4 (or (= N1 #b0)
                    (not (= ((_ extract 1 1) P) #b0))
                    (= L #b0)
                    (not (= ((_ extract 0 0) P) #b0))
                    (not (= ((_ extract 2 2) P) #b0))
                    (not (= ((_ extract 3 3) P) #b0))))
           (a!5 (or (not (= R1 #b1))
                    (= J #x0)
                    (not (= J (bvadd #xf X)))
                    (= G U1)))
           (a!6 (or (= W #b0)
                    (= J #x0)
                    (not (= F1 #b1))
                    (= J2 #b1)
                    (not (= (concat #b00 U1 X2 P) D2))
                    (= A X2)))
           (a!7 (or (= T1 #b1)
                    (not (= J2 #b0))
                    (not (= W #b1))
                    (not (= I1 (bvadd #xf M1)))
                    (= M #b1)))
           (a!8 (or (not (= M #b0))
                    (not ((_ bit2bool 0) J))
                    (not (= M1 (bvadd #x2 I1)))))
           (a!9 (or (= R #b0)
                    (= T1 #b1)
                    (bvule #xd I1)
                    (not (= J (bvadd #xf X)))))
           (a!10 (or (= W #b0)
                     (not ((_ bit2bool 0) J))
                     (not ((_ bit2bool 1) J))
                     (not (bvule #xd (bvadd #xb I1)))
                     (not (bvule (bvadd #xb I1) #xd))))
           (a!11 (or (= W #b0)
                     (not ((_ bit2bool 2) J))
                     (bvule #xd (bvadd #x9 I1))
                     (not (bvule #xd (bvadd #xa I1)))))
           (a!12 (or (not ((_ bit2bool 0) J))
                     (not ((_ bit2bool 2) J))
                     (not (= W #b1))
                     (bvule #xd (bvadd #x8 I1))
                     (not (bvule #xd (bvadd #x9 I1)))))
           (a!13 (or (not ((_ bit2bool 0) J))
                     (not ((_ bit2bool 3) J))
                     (not (= W #b1))
                     (bvule #xd (bvadd #x4 I1))
                     (not (bvule #xd (bvadd #x5 I1)))))
           (a!14 (or (= W #b0)
                     (not ((_ bit2bool 3) J))
                     (not (bvule #xd (bvadd #x6 I1)))
                     (not (bvule (bvadd #x6 I1) #xd))))
           (a!15 (not (= (concat #b00 Z2 ((_ extract 35 4) D2) P) D2)))
           (a!16 (or (= W #b0)
                     (not (= F1 #b1))
                     (= J2 #b1)
                     (not (= ((_ extract 0 0) J) #b1))
                     (= P ((_ extract 3 0) D2))))
           (a!17 (or (not (= M #b0))
                     (not (bvule #xd (bvadd #x1 I1)))
                     (= ((_ extract 3 3) M1) #b1)))
           (a!18 (or (not ((_ bit2bool 0) J))
                     (not ((_ bit2bool 1) J))
                     (not (= W #b1))
                     (= J2 #b1)
                     (bvule #xd (bvadd #xa I1))
                     (not (bvule #xd (bvadd #xb I1)))))
           (a!19 (or (not ((_ bit2bool 1) J))
                     (not (= B2 #b1))
                     (not (bvule #xd (bvadd #xb I1)))
                     (not (bvule (bvadd #xb I1) #xd))))
           (a!20 (or ((_ bit2bool 0) I1)
                     (not ((_ bit2bool 0) J))
                     (not ((_ bit2bool 1) J))
                     (not (= F1 #b1))
                     (bvule #xd (bvadd #x9 I1))
                     (not (bvule #xd (bvadd #xb I1)))))
           (a!21 (or (not ((_ bit2bool 2) J))
                     (not (bvule #xd (bvadd #xb I1)))
                     (not (bvule (bvadd #xb I1) #xd))))
           (a!22 (or (not ((_ bit2bool 2) J))
                     (not (= F1 #b1))
                     (bvule #xd (bvadd #x9 I1))
                     (not (bvule #xd (bvadd #xa I1)))))
           (a!23 (or (not ((_ bit2bool 0) J))
                     (not ((_ bit2bool 2) J))
                     (not (= F1 #b1))
                     (bvule #xd (bvadd #x8 I1))
                     (not (bvule #xd (bvadd #x9 I1)))))
           (a!24 (or ((_ bit2bool 1) I1)
                     (not (= F1 #b1))
                     (not (= J #x6))
                     (not (bvule #xd (bvadd #x8 I1)))))
           (a!25 (or (not ((_ bit2bool 0) J))
                     (not ((_ bit2bool 2) J))
                     (not ((_ bit2bool 1) J))
                     (not (= B2 #b1))
                     (bvule #xd (bvadd #x5 I1))
                     (not (bvule #xd (bvadd #x6 I1)))))
           (a!26 (or (= W #b0)
                     (not ((_ bit2bool 3) J))
                     (not ((_ bit2bool 1) J))
                     (= J2 #b1)
                     (bvule #xd (bvadd #x3 I1))
                     (not (bvule #xd (bvadd #x4 I1)))))
           (a!27 (or (not ((_ bit2bool 3) J))
                     (not ((_ bit2bool 1) J))
                     (not (= F1 #b1))
                     (bvule #xd (bvadd #x3 I1))
                     (not (bvule #xd (bvadd #x4 I1)))))
           (a!28 (or (not ((_ bit2bool 0) J))
                     (not ((_ bit2bool 3) J))
                     (not ((_ bit2bool 1) J))
                     (bvule #xd (bvadd #x3 I1))
                     (not (bvule #xd (bvadd #x4 I1)))))
           (a!29 (or (not ((_ bit2bool 0) J))
                     (not ((_ bit2bool 2) J))
                     (not ((_ bit2bool 3) J))
                     (bvule #xd (bvadd #x1 I1))
                     (not (bvule #xd (bvadd #x2 I1))))))
     (let ((a!30 (and (or (not ((_ bit2bool 3) J)) (not (= B2 #b1)) a!1)
                      (or (= N1 #b0) (= (bvnot R) T))
                      (or (not (= N1 #b0)) (not (= Y2 #b1)))
                      (or (= M2 #b0) (= R1 #b1))
                      (or (= D3 #b1) (not (= M2 #b0)) (= G1 #b1))
                      (or (= F1 #b0) (not (= R #b0)))
                      (or (= D3 #b1) (not (= W #b1)) (= D1 #b1))
                      (or (= W #b0)
                          (= N1 #b0)
                          (= T1 #b1)
                          ((_ bit2bool 0) I1)
                          ((_ bit2bool 1) I1)
                          ((_ bit2bool 2) I1)
                          ((_ bit2bool 3) I1)
                          (= J2 #b1))
                      (or (= P1 #b0) (not (= R #b0)))
                      a!2
                      (not (= J #xf))
                      (or (not (= Q #b0))
                          (not (= W #b0))
                          (not (= R #b1))
                          (not (= Y2 #b1)))
                      (or (not (= J2 #b0)) (not (= B2 #b1)) (= A1 A))
                      (or (not ((_ bit2bool 0) W1)) (not ((_ bit2bool 0) Z1)))
                      (or (= F1 #b1) (not (= B2 #b1)))
                      (or (not (= J2 #b0)) (not (= B2 #b1)) (= H P))
                      (or (= F1 #b0) (= B2 #b1) (= F1 W) (= H P))
                      (or (= F1 #b0) (= J2 #b1) (= J1 P) (= B2 W))
                      (or (not (bvule #x5 I)) (= Q2 #b1))
                      (or (not ((_ bit2bool 2) J))
                          (not ((_ bit2bool 1) J))
                          (not (= J2 #b0))
                          (not (= W #b1))
                          (bvule #xd (bvadd #x1 I1))
                          (bvule #xd (bvadd #x4 I1))
                          (bvule #xd (bvadd #x6 I1))
                          (bvule #xd (bvadd #x8 I1)))
                      (or (= C2 #b0) (= F1 #b0))
                      a!3
                      (or (not (= M2 #b0)) (= J #x0))
                      (or (= F1 #b0)
                          ((_ bit2bool 0) I1)
                          ((_ bit2bool 1) I1)
                          ((_ bit2bool 2) I1)
                          ((_ bit2bool 3) I1))
                      (or (= N1 #b0) (not (= W #b1)) (= D1 #b1))
                      a!4
                      (or (not (= P1 #b1)) (not (= X #x0)))
                      (or (not (= Q #b0))
                          (not (= X #x0))
                          (= J #x0)
                          (not (= R #b1))
                          (= J2 #b1)
                          (= M #b1)
                          (not (= M1 I1)))
                      (or (not (= J #xe)) (= O1 A))
                      (or (not (= Q #b0))
                          (not (= R #b1))
                          (not (= Y2 #b1))
                          (= B #b0)
                          (= B1 #b1))
                      (or (not (= J #xe)) (= S1 B))
                      (or (not (= W #b0)) (not (= F1 #b1)) (not (= J #xe)))
                      (or (not (= Q #b0)) (= I1 M1) (not (= W #b0)))
                      (or (= I1 #x0)
                          (not (= M1 #x0))
                          (not (= M #b0))
                          (not (= J #xe)))
                      (or (not (= Q2 #b0))
                          (not (= M1 #x0))
                          (not (= W1 #b0))
                          (= J #x0)
                          (not (= M #b0))
                          (not (= W #b1))
                          (not ((_ bit2bool 0) K1)))
                      (or (not (= J #xe)) (= J1 P))
                      (or (not ((_ bit2bool 0) J))
                          (not ((_ bit2bool 2) J))
                          (not (= J2 #b0))
                          (not (= W #b1))
                          (bvule #xd (bvadd #x1 I1))
                          (bvule #xd (bvadd #x4 I1))
                          (bvule #xd (bvadd #x5 I1))
                          (bvule #xd (bvadd #x8 I1))
                          (bvule #xd (bvadd #x9 I1)))
                      (or (= F1 #b0) (= J2 #b1) (= B2 W) (= H1 U1))
                      a!5
                      (or (not (= J #xe)) (not ((_ bit2bool 69) D2)))
                      a!6
                      (or (= W #b0)
                          (not (= B2 #b0))
                          (not (= F1 #b1))
                          (not ((_ bit2bool 69) D2)))
                      (or (not ((_ bit2bool 0) J))
                          (not ((_ bit2bool 2) J))
                          (not ((_ bit2bool 3) J))
                          (not ((_ bit2bool 69) D2)))
                      (or (not ((_ bit2bool 0) J))
                          (not ((_ bit2bool 2) J))
                          (not ((_ bit2bool 3) J))
                          (= K2 #b0)
                          (not (= J2 #b1)))
                      (or (not ((_ bit2bool 3) J))
                          (not ((_ bit2bool 1) J))
                          (bvule #xd (bvadd #x2 I1))
                          (not ((_ bit2bool 69) D2)))
                      (or (not (= X #x0))
                          (= J #x0)
                          (not (= W #b0))
                          (= M1 I1)
                          (= M #b1))
                      (or (not (= J2 #b0)) (not (= B2 #b1)) (= G U1))
                      a!7
                      (or (= W #b0)
                          (not ((_ bit2bool 2) J))
                          (not (= J2 #b0))
                          (bvule #xd (bvadd #x1 I1))
                          (bvule #xd (bvadd #x4 I1))
                          (bvule #xd (bvadd #x5 I1))
                          (bvule #xd (bvadd #x8 I1))
                          (bvule #xd (bvadd #xa I1)))
                      (or ((_ bit2bool 0) R) (not (= Z1 #b1)))
                      (or ((_ bit2bool 2) D2)
                          ((_ bit2bool 0) D2)
                          ((_ bit2bool 1) D2)
                          ((_ bit2bool 3) D2)
                          (= J #x0)
                          (not (= F1 #b1))
                          (= J2 #b1)
                          (= B2 W)
                          (= P #x0))
                      a!8
                      (or (= W #b0)
                          (not (= B2 #b0))
                          (not (= F1 #b1))
                          (= J2 #b1)
                          (= O1 A))
                      (or (not ((_ bit2bool 0) J))
                          (not ((_ bit2bool 2) J))
                          (not ((_ bit2bool 1) J))
                          (not (= W #b1))
                          (bvule #xd (bvadd #x1 I1))
                          (bvule #xd (bvadd #x4 I1))
                          (bvule #xd (bvadd #x7 I1)))
                      (or (not ((_ bit2bool 3) J))
                          (not (= W #b1))
                          (bvule #xd (bvadd #x1 I1))
                          (bvule #xd (bvadd #x4 I1))
                          (bvule #xd (bvadd #x6 I1)))
                      (or (not (= W #b0)) (not (bvule #x5 I)) (not (= F1 #b1)))
                      (or (not ((_ bit2bool 3) J))
                          (not ((_ bit2bool 1) J))
                          (not (= W #b1))
                          (bvule #xd (bvadd #x1 I1))
                          (bvule #xd (bvadd #x4 I1)))
                      (or (not ((_ bit2bool 2) J))
                          (not ((_ bit2bool 3) J))
                          (not (= W #b1))
                          (bvule #xd (bvadd #x2 I1)))
                      a!9
                      (or ((_ bit2bool 2) I1)
                          (not ((_ bit2bool 1) J))
                          (not (= W #b1))
                          (bvule #xd (bvadd #x4 I1))
                          (bvule #xd (bvadd #x5 I1))
                          (bvule #xd (bvadd #xb I1)))
                      a!10
                      a!11
                      a!12
                      a!13
                      (or (not ((_ bit2bool 0) J))
                          (not ((_ bit2bool 2) J))
                          (not ((_ bit2bool 1) J))
                          (not (= W #b1))
                          (bvule #xd (bvadd #x1 I1))
                          (bvule #xd (bvadd #x4 I1))
                          (bvule #xd (bvadd #x6 I1)))
                      a!14
                      (or (= W #b0)
                          (not ((_ bit2bool 3) J))
                          (not ((_ bit2bool 1) J))
                          (not (= I1 #x9)))
                      (or (not ((_ bit2bool 2) J))
                          (not ((_ bit2bool 3) J))
                          (not (= F1 #b1))
                          (bvule #xd (bvadd #x1 I1)))
                      (or (not (= J #xe)) (= K2 #b0))
                      (or (bvule #xd I1)
                          (not ((_ bit2bool 2) J))
                          (not ((_ bit2bool 3) J))
                          (not (= B2 #b1)))
                      (or (= J #x0)
                          (not (= W #b1))
                          (not (= F1 #b1))
                          (= J2 #b1)
                          a!15
                          (= U1 Z2))
                      (or (not ((_ bit2bool 0) J))
                          (not ((_ bit2bool 2) J))
                          (not ((_ bit2bool 3) J))
                          (not (= W #b0))
                          (= K2 #b0)
                          (not (= F1 #b1)))
                      (or (bvule #xd I1)
                          (not ((_ bit2bool 0) J))
                          (not ((_ bit2bool 2) J))
                          (not ((_ bit2bool 3) J))
                          (not (= W #b0))
                          (not (= F1 #b1)))
                      (or (not (= Q2 #b0))
                          (not (= X #x0))
                          (= J #x0)
                          (not (= J2 #b0))
                          (not (= W #b1))
                          (bvule #xd (bvadd #x1 I1))
                          (bvule #xd (bvadd #x4 I1))
                          (bvule #xd (bvadd #x5 I1))
                          (bvule #xd (bvadd #x8 I1))
                          (bvule #xd (bvadd #xb I1)))
                      (or (bvule #xd (bvadd #x1 I1))
                          (not ((_ bit2bool 69) D2))
                          (bvule #xd (bvadd #x4 I1))
                          (bvule #xd (bvadd #x5 I1))
                          (bvule #xd (bvadd #x8 I1))
                          (bvule #xd (bvadd #xb I1)))
                      (or (not (= B2 #b1))
                          (bvule #xd (bvadd #x1 I1))
                          (bvule #xd (bvadd #x4 I1))
                          (bvule #xd (bvadd #x5 I1))
                          (bvule #xd (bvadd #x8 I1))
                          (bvule #xd (bvadd #xb I1)))
                      (or (not ((_ bit2bool 0) J))
                          (not ((_ bit2bool 1) J))
                          (not (= W #b0))
                          (not (= F1 #b1))
                          (bvule #xd (bvadd #x1 I1))
                          (bvule #xd (bvadd #x4 I1))
                          (bvule #xd (bvadd #x5 I1))
                          (bvule #xd (bvadd #x8 I1))
                          (bvule #xd (bvadd #xb I1)))
                      (or (not ((_ bit2bool 0) J))
                          (not (= W #b1))
                          (bvule #xd (bvadd #x1 I1))
                          (bvule #xd (bvadd #x4 I1))
                          (bvule #xd (bvadd #x7 I1))
                          (bvule #xd (bvadd #x8 I1))
                          (bvule #xd (bvadd #xb I1)))
                      (or (= R #b0)
                          (not ((_ bit2bool 2) J))
                          (bvule #xd (bvadd #x1 I1))
                          (bvule #xd (bvadd #x4 I1))
                          (bvule #xd (bvadd #x7 I1))
                          (bvule #xd (bvadd #x8 I1))
                          (bvule #xd (bvadd #xb I1)))
                      (or (not ((_ bit2bool 2) J))
                          (not (= J2 #b0))
                          (not (= W #b1))
                          (bvule #xd (bvadd #x1 I1))
                          (bvule #xd (bvadd #x4 I1))
                          (bvule #xd (bvadd #x7 I1))
                          (bvule #xd (bvadd #xa I1)))
                      (or (not ((_ bit2bool 0) J))
                          (not ((_ bit2bool 1) J))
                          (not (= B2 #b1))
                          (bvule #xd (bvadd #x1 I1))
                          (bvule #xd (bvadd #x4 I1))
                          (bvule #xd (bvadd #x7 I1))
                          (bvule #xd (bvadd #xa I1)))
                      (or (not ((_ bit2bool 2) J))
                          (not (= F1 #b1))
                          (bvule #xd (bvadd #x1 I1))
                          (bvule #xd (bvadd #x4 I1))
                          (bvule #xd (bvadd #x7 I1))
                          (bvule #xd (bvadd #xa I1)))
                      (or (not ((_ bit2bool 2) J))
                          (not (= B2 #b1))
                          (bvule #xd (bvadd #x1 I1))
                          (bvule #xd (bvadd #x4 I1))
                          (bvule #xd (bvadd #x7 I1))
                          (bvule #xd (bvadd #x8 I1)))
                      (or (not ((_ bit2bool 0) J))
                          (not ((_ bit2bool 2) J))
                          (not (= W #b0))
                          (not (= F1 #b1))
                          (bvule #xd (bvadd #x1 I1))
                          (bvule #xd (bvadd #x4 I1))
                          (bvule #xd (bvadd #x5 I1))
                          (bvule #xd (bvadd #x8 I1)))
                      (or (not ((_ bit2bool 0) J))
                          (not ((_ bit2bool 2) J))
                          (not (= R #b1))
                          (bvule #xd (bvadd #x1 I1))
                          (bvule #xd (bvadd #x4 I1))
                          (bvule #xd (bvadd #x7 I1))
                          (bvule #xd (bvadd #x9 I1)))
                      (or (= R #b0)
                          (not ((_ bit2bool 2) J))
                          (not ((_ bit2bool 1) J))
                          (bvule #xd (bvadd #x1 I1))
                          (bvule #xd (bvadd #x4 I1))
                          (bvule #xd (bvadd #x7 I1))
                          (bvule #xd (bvadd #x8 I1)))
                      (or (not (= W #b1))
                          (not (= J #x6))
                          (= J2 #b1)
                          (bvule #xd (bvadd #x1 I1))
                          (bvule #xd (bvadd #x4 I1))
                          (bvule #xd (bvadd #x7 I1))
                          (bvule #xd (bvadd #x8 I1)))
                      (or (not ((_ bit2bool 0) J))
                          (not ((_ bit2bool 2) J))
                          (bvule #xd (bvadd #x1 I1))
                          (not ((_ bit2bool 69) D2))
                          (bvule #xd (bvadd #x4 I1))
                          (bvule #xd (bvadd #x7 I1)))
                      (or (not ((_ bit2bool 0) J))
                          (not ((_ bit2bool 2) J))
                          (not (= B2 #b1))
                          (bvule #xd (bvadd #x1 I1))
                          (bvule #xd (bvadd #x4 I1))
                          (bvule #xd (bvadd #x7 I1)))
                      (or (not (= F1 #b1))
                          (not (= J #x6))
                          (bvule #xd (bvadd #x1 I1))
                          (bvule #xd (bvadd #x4 I1))
                          (bvule #xd (bvadd #x5 I1))
                          (bvule #xd (bvadd #x8 I1)))
                      (or (= R #b0)
                          (not ((_ bit2bool 0) J))
                          (not ((_ bit2bool 2) J))
                          (not ((_ bit2bool 1) J))
                          (bvule #xd (bvadd #x1 I1))
                          (bvule #xd (bvadd #x4 I1))
                          (bvule #xd (bvadd #x5 I1))
                          (bvule #xd (bvadd #x8 I1)))
                      (or (not ((_ bit2bool 3) J))
                          (not (= R #b1))
                          (bvule #xd (bvadd #x1 I1))
                          (bvule #xd (bvadd #x4 I1))
                          (bvule #xd (bvadd #x7 I1)))
                      (or (not ((_ bit2bool 3) J))
                          (bvule #xd (bvadd #x1 I1))
                          (not ((_ bit2bool 69) D2))
                          (bvule #xd (bvadd #x4 I1)))
                      (or (not ((_ bit2bool 0) J))
                          (not ((_ bit2bool 3) J))
                          (not (= W #b0))
                          (not (= F1 #b1))
                          (bvule #xd (bvadd #x1 I1))
                          (bvule #xd (bvadd #x4 I1)))
                      (or (not ((_ bit2bool 0) J))
                          (not ((_ bit2bool 3) J))
                          (not (= R #b1))
                          (bvule #xd (bvadd #x1 I1))
                          (bvule #xd (bvadd #x4 I1))
                          (bvule #xd (bvadd #x5 I1)))
                      (or (= R #b0)
                          (not ((_ bit2bool 3) J))
                          (not ((_ bit2bool 1) J))
                          (bvule #xd (bvadd #x1 I1))
                          (bvule #xd (bvadd #x4 I1)))
                      a!16
                      (or (not (= B2 #b1))
                          (bvule #xd (bvadd #x1 I1))
                          (not (= J #xb)))
                      (or (not ((_ bit2bool 2) J))
                          (not ((_ bit2bool 3) J))
                          (not (= R #b1))
                          (bvule #xd (bvadd #x2 I1)))
                      (or (not (= J #xe)) (= R #b0) (bvule #xd I1))
                      (or (not ((_ bit2bool 2) I1))
                          (not ((_ bit2bool 3) I1))
                          (not ((_ bit2bool 1) I1)))
                      a!17
                      (or (not (= I1 #x0)) (= J #x0) (not (= R #b1)))
                      (or (= J #x0)
                          ((_ bit2bool 2) I1)
                          (not ((_ bit2bool 0) I1))
                          (not (= W #b1))
                          (bvule #xd (bvadd #x4 I1))
                          (bvule #xd (bvadd #xb I1)))
                      (or ((_ bit2bool 2) I1)
                          (not ((_ bit2bool 1) J))
                          (not (= F1 #b1))
                          (bvule #xd (bvadd #x4 I1))
                          (bvule #xd (bvadd #x6 I1))
                          (bvule #xd (bvadd #xb I1)))
                      (or (not (= M1 #x0))
                          (not (= M #b0))
                          (not ((_ bit2bool 0) J))
                          (not (= R #b1)))
                      (or ((_ bit2bool 2) I1)
                          ((_ bit2bool 3) I1)
                          (not ((_ bit2bool 0) J))
                          (not ((_ bit2bool 1) J))
                          (not (= R #b1))
                          (bvule #xd (bvadd #xb I1)))
                      a!18
                      (or (not (= X #x0))
                          (= J #x0)
                          (not (= M #b0))
                          (not (= J2 #b0))
                          (not (= W #b1))
                          (not (= M1 I1)))
                      (or (= W #b0)
                          ((_ bit2bool 68) D2)
                          (= J #x0)
                          (not (= F1 #b1))
                          (= B #b0)
                          (= J2 #b1))
                      a!19
                      a!20
                      a!21
                      (or (not ((_ bit2bool 0) J))
                          (not ((_ bit2bool 1) J))
                          (not (= B2 #b1))
                          (bvule #xd (bvadd #x1 I1))
                          (bvule #xd (bvadd #x4 I1))
                          (bvule #xd (bvadd #x5 I1))
                          (bvule #xd (bvadd #x8 I1))
                          (bvule #xd (bvadd #x9 I1)))
                      a!22
                      a!23
                      a!24
                      (or (= W #b0)
                          ((_ bit2bool 1) I1)
                          ((_ bit2bool 3) I1)
                          (not (= J #x6)))
                      (or (not (= B2 #b1))
                          (not (= J #x6))
                          (bvule #xd (bvadd #x1 I1))
                          (bvule #xd (bvadd #x4 I1))
                          (bvule #xd (bvadd #x6 I1)))
                      (or (not ((_ bit2bool 0) J))
                          (not ((_ bit2bool 2) J))
                          (not ((_ bit2bool 1) J))
                          (not (= W #b0))
                          (not (= F1 #b1))
                          (bvule #xd (bvadd #x1 I1))
                          (bvule #xd (bvadd #x4 I1))
                          (bvule #xd (bvadd #x6 I1)))
                      (or (not ((_ bit2bool 0) J))
                          (not ((_ bit2bool 2) J))
                          (not ((_ bit2bool 1) J))
                          (not ((_ bit2bool 0) I1))
                          (not ((_ bit2bool 2) I1))
                          (bvule #xd (bvadd #x1 I1))
                          (bvule #xd (bvadd #x6 I1)))
                      (or (not ((_ bit2bool 3) J))
                          (not (= R #b1))
                          (bvule #xd (bvadd #x1 I1))
                          (bvule #xd (bvadd #x4 I1))
                          (bvule #xd (bvadd #x6 I1)))
                      a!25
                      (or (not ((_ bit2bool 3) J))
                          (not (= F1 #b1))
                          (= ((_ extract 3 3) I1) #b1))
                      (or (= W #b0)
                          ((_ bit2bool 2) I1)
                          (not ((_ bit2bool 0) J))
                          (not ((_ bit2bool 3) J))
                          (bvule #xd (bvadd #x4 I1)))
                      a!26
                      a!27
                      (or ((_ bit2bool 2) I1)
                          (not ((_ bit2bool 0) J))
                          (not ((_ bit2bool 3) J))
                          (not (= B2 #b1))
                          (bvule #xd (bvadd #x3 I1)))
                      (or ((_ bit2bool 69) D2)
                          (= J #x0)
                          (not (= J2 #b0))
                          (not (= B2 #b1)))
                      a!28
                      (or (not (= W #b1))
                          (bvule #xd (bvadd #x2 I1))
                          (not (= J #xb)))
                      (or (not ((_ bit2bool 2) J))
                          (not ((_ bit2bool 3) J))
                          (not (= W #b1))
                          (bvule #xd (bvadd #x1 I1)))
                      a!29
                      (or (bvule #xd I1) (not (= W #b1)) (not (= J #xd)))
                      (or (not (= W #b1)) (not (= J #xe)))
                      (or (not ((_ bit2bool 2) J))
                          (not ((_ bit2bool 3) J))
                          (bvule #xd (bvadd #x1 I1))
                          (not ((_ bit2bool 69) D2)))
                      (or (not ((_ bit2bool 0) J))
                          (not ((_ bit2bool 3) J))
                          (not ((_ bit2bool 1) J))
                          (not (= F1 #b1))
                          (bvule #xd (bvadd #x2 I1))))))
       (= (INV!slice!1 A
                       B
                       C
                       D
                       E
                       F
                       G
                       H
                       I
                       J
                       K
                       L
                       M
                       N
                       O
                       P
                       Q
                       R
                       S
                       T
                       U
                       V
                       W
                       X
                       Y
                       Z
                       A1
                       B1
                       C1
                       D1
                       E1
                       F1
                       G1
                       H1
                       I1
                       J1
                       K1
                       L1
                       M1
                       N1
                       O1
                       P1
                       Q1
                       R1
                       S1
                       T1
                       U1
                       V1
                       W1
                       X1
                       Y1
                       Z1
                       A2
                       B2
                       C2
                       D2
                       E2
                       F2
                       G2
                       H2
                       I2
                       J2
                       K2
                       L2
                       M2
                       N2
                       O2
                       P2
                       Q2
                       R2
                       S2
                       T2
                       U2
                       V2
                       W2
                       X2
                       Y2
                       Z2
                       A3
                       B3
                       C3
                       D3)
          a!30)))
     :weight 0))
